CMD:
./solvers/bin/cadical --plain --no-reduce -t 1600 ./data/cnfs//6s216rb0/6s216rb0.98.cnf

c --- [ banner ] -------------------------------------------------------------
c 
c CaDiCaL SAT Solver
c Copyright (c) 2016-2024
c A. Biere, M. Fleury, N. Froleyks, K. Fazekas, F. Pollitt, T. Faller
c JKU Linz, University of Freiburg, TU Wien
c 
c Version 2.1.3 5296d3d2a9bf48c154ab2acb5e44625776d821bf
c g++ (Gentoo 12.3.1_p20230526 p2) 12.3.1 20230526 -Wall -Wextra -O3 -DNDEBUG
c Sat Aug 9 07:26:21 PDT 2025 Linux cedar2.int.cedar.computecanada.ca 5.14.0-362.24.2.el9_3.x86_64 x86_64
c 
c --- [ limit ] --------------------------------------------------------------
c 
c setting time limit to 1600 seconds real time (due to '-t 1600')
c 
c --- [ parsing input ] ------------------------------------------------------
c 
c reading DIMACS file from './data/cnfs//6s216rb0/6s216rb0.98.cnf'
c opening file to read './data/cnfs//6s216rb0/6s216rb0.98.cnf'
c found 'p cnf 972855 2809204' header
c parsed 2809204 clauses in 0.52 seconds process time
c 
c --- [ options ] ------------------------------------------------------------
c 
c   --compact=false                (different from default 'true')
c   --decompose=false              (different from default 'true')
c   --deduplicate=false            (different from default 'true')
c   --elim=false                   (different from default 'true')
c   --probe=false                  (different from default 'true')
c   --reduce=false                 (different from default 'true')
c   --subsume=false                (different from default 'true')
c   --ternary=false                (different from default 'true')
c   --transred=false               (different from default 'true')
c   --vivify=false                 (different from default 'true')
c 
c --- [ solving ] ------------------------------------------------------------
c 
c time measured in process time since initialization
c 
c  seconds   reductions  redundant   irredundant
c          MB    restarts       trail        variables
c           level   conflicts       glue           remaining
c 
c *  0.52 391  0 0   0    0    0  0% 0 2314272 747160 77%
c {  0.53 391  0 0   0    0    0  0% 0 2314272 747160 77%
c i  0.53 391  1 0   0    1    0 23% 0 2314272 747146 77%
c i  0.56 393 75 0   1   23   18 25% 2 2314272 747145 77%
c i  0.57 393 73 0   1   24   18 26% 2 2314272 747144 77%
c i  0.58 393 71 0   1   25   18 26% 2 2314272 747143 77%
c i  0.59 393 70 0   1   26   18 26% 2 2314272 747142 77%
c i  0.59 393 69 0   1   27   18 26% 2 2314272 747141 77%
c i  0.60 393 67 0   1   28   18 26% 2 2314272 747140 77%
c i  0.61 393 66 0   1   29   18 26% 2 2314272 747139 77%
c i  0.61 393 65 0   1   30   18 27% 2 2314272 747138 77%
c i  0.62 393 64 0   1   31   18 27% 2 2314272 747137 77%
c i  0.62 393 63 0   1   32   18 27% 2 2314272 747136 77%
c i  0.63 393 63 0   1   33   18 27% 2 2314272 747135 77%
c i  0.63 393 62 0   1   34   18 27% 1 2314272 747134 77%
c i  0.64 393 61 0   1   35   18 27% 1 2314272 747133 77%
c i  0.64 393 60 0   1   36   18 27% 1 2314272 747132 77%
c i  0.65 393 60 0   1   37   18 27% 1 2314272 747131 77%
c i  0.65 393 59 0   1   38   18 27% 1 2314272 747130 77%
c i  0.66 393 58 0   1   39   18 27% 1 2314272 747129 77%
c 
c  seconds   reductions  redundant   irredundant
c          MB    restarts       trail        variables
c           level   conflicts       glue           remaining
c 
c i  0.66 393 58 0   1   40   18 27% 1 2314272 747128 77%
c i  0.67 393 57 0   1   41   18 27% 1 2314272 747127 77%
c i  0.67 393 57 0   1   42   18 27% 1 2314272 747126 77%
c i  0.67 393 56 0   1   43   18 27% 1 2314272 747125 77%
c i  0.68 393 56 0   1   44   18 27% 1 2314272 747124 77%
c i  0.68 393 56 0   1   45   18 27% 1 2314272 747123 77%
c i  0.68 393 55 0   1   46   18 27% 1 2314272 747122 77%
c i  0.68 393 55 0   1   47   18 27% 1 2314272 747121 77%
c i  0.69 393 54 0   1   48   18 27% 1 2314272 747120 77%
c i  0.69 393 54 0   1   49   18 27% 1 2314272 747119 77%
c i  0.69 393 54 0   1   50   18 27% 1 2314272 747118 77%
c i  0.69 393 53 0   1   51   18 27% 1 2314272 747117 77%
c i  0.69 393 53 0   1   52   18 27% 1 2314272 747116 77%
c i  0.69 393 53 0   1   53   18 27% 1 2314272 747115 77%
c i  0.69 393 52 0   1   54   18 27% 1 2314272 747114 77%
c i  0.69 393 52 0   1   55   18 27% 1 2314272 747113 77%
c i  0.69 393 52 0   1   56   18 27% 1 2314272 747112 77%
c i  0.69 393 52 0   1   57   18 27% 1 2314272 747111 77%
c i  0.69 393 51 0   1   58   18 27% 1 2314272 747110 77%
c i  0.69 393 51 0   1   59   18 27% 1 2314272 747109 77%
c 
c  seconds   reductions  redundant   irredundant
c          MB    restarts       trail        variables
c           level   conflicts       glue           remaining
c 
c i  0.69 393 51 0   1   60   18 27% 1 2314272 747108 77%
c i  0.69 393 51 0   1   61   18 27% 1 2314272 747107 77%
c i  0.69 393 50 0   1   62   18 27% 1 2314272 747106 77%
c i  0.80 394 125 0  14  120   69 27% 1 2314272 747105 77%
... skipped 97752 lines ...
v -972349 -972350 972351 -972352 -972353 972354 -972355 -972356 -972357 972358
v 972359 972360 -972361 -972362 -972363 -972364 972365 -972366 -972367 972368
v -972369 -972370 -972371 972372 972373 972374 -972375 -972376 -972377 -972378
v 972379 -972380 -972381 -972382 972383 972384 972385 -972386 -972387 -972388
v -972389 972390 -972391 -972392 972393 -972394 -972395 -972396 972397 972398
v 972399 -972400 -972401 -972402 -972403 972404 -972405 -972406 972407 -972408
v -972409 972410 -972411 -972412 972413 972414 -972415 -972416 -972417 972418
v 972419 972420 -972421 -972422 -972423 972424 972425 -972426 972427 972428
v -972429 -972430 -972431 -972432 -972433 -972434 972435 972436 -972437
v -972438 972439 972440 -972441 972442 972443 972444 -972445 -972446 -972447
v -972448 -972449 972450 972451 -972452 -972453 972454 -972455 -972456 972457
v -972458 -972459 972460 972461 -972462 -972463 -972464 972465 972466 972467
v -972468 -972469 -972470 972471 972472 -972473 -972474 -972475 972476 972477
v 972478 -972479 -972480 -972481 972482 -972483 972484 -972485 -972486 972487
v 972488 972489 -972490 -972491 -972492 972493 972494 -972495 -972496 972497
v -972498 -972499 -972500 -972501 972502 972503 -972504 972505 -972506 -972507
v 972508 -972509 -972510 -972511 -972512 972513 972514 -972515 972516 -972517
v -972518 972519 -972520 -972521 972522 -972523 -972524 972525 972526 -972527
v -972528 972529 972530 -972531 -972532 -972533 972534 -972535 972536 972537
v -972538 -972539 972540 -972541 -972542 -972543 972544 972545 972546 -972547
v -972548 972549 -972550 -972551 972552 972553 972554 -972555 972556 972557
v -972558 -972559 972560 -972561 -972562 972563 -972564 -972565 972566 -972567
v -972568 972569 972570 -972571 -972572 -972573 -972574 -972575 -972576
v -972577 -972578 972579 972580 -972581 -972582 -972583 -972584 -972585 972586
v -972587 -972588 972589 -972590 -972591 972592 -972593 -972594 972595 -972596
v -972597 -972598 -972599 972600 972601 -972602 -972603 -972604 972605 972606
v 972607 -972608 -972609 -972610 -972611 972612 -972613 -972614 972615 -972616
v -972617 972618 -972619 -972620 -972621 972622 -972623 972624 -972625 -972626
v 972627 -972628 -972629 972630 -972631 -972632 -972633 -972634 -972635
v -972636 -972637 -972638 -972639 972640 -972641 -972642 -972643 972644
v -972645 -972646 -972647 -972648 972649 -972650 -972651 -972652 972653
v -972654 972655 -972656 972657 -972658 972659 972660 -972661 -972662 -972663
v 972664 -972665 -972666 972667 -972668 972669 -972670 -972671 972672 -972673
v -972674 -972675 972676 -972677 -972678 -972679 972680 -972681 972682 -972683
v -972684 -972685 972686 -972687 -972688 972689 -972690 -972691 972692 -972693
v -972694 -972695 972696 -972697 972698 -972699 -972700 -972701 972702 -972703
v -972704 -972705 972706 -972707 -972708 -972709 972710 972711 -972712 -972713
v -972714 972715 972716 -972717 -972718 972719 -972720 -972721 -972722 -972723
v 972724 972725 -972726 972727 -972728 -972729 -972730 972731 -972732 -972733
v 972734 -972735 -972736 972737 -972738 -972739 -972740 972741 -972742 972743
v -972744 -972745 972746 -972747 972748 -972749 -972750 -972751 972752 -972753
v -972754 -972755 972756 -972757 -972758 -972759 972760 -972761 -972762 972763
v -972764 -972765 972766 -972767 -972768 -972769 972770 -972771 -972772 972773
v -972774 -972775 -972776 972777 -972778 -972779 -972780 972781 -972782
v -972783 972784 -972785 -972786 972787 -972788 -972789 -972790 972791 -972792
v -972793 972794 -972795 -972796 -972797 972798 -972799 -972800 -972801 972802
v -972803 -972804 972805 -972806 -972807 972808 -972809 -972810 -972811 972812
v -972813 -972814 972815 -972816 -972817 -972818 972819 -972820 -972821
v -972822 972823 -972824 -972825 972826 -972827 -972828 972829 -972830 -972831
v -972832 972833 -972834 972835 -972836 -972837 -972838 972839 972840 -972841
v 972842 -972843 -972844 972845 -972846 -972847 972848 972849 -972850 -972851
v 972852 972853 972854 -972855 0
c 
c --- [ run-time profiling ] -------------------------------------------------
c 
c process time taken by individual solving procedures
c (percentage relative to process time for solving)
c 
c         1.43   99.99% search
c         1.16   80.81% unstable
c         0.52   36.27% parse
c         0.27   18.74% stable
c         0.01    0.43% lucky
c         0.00    0.00% simplify
c   =================================
c         1.43   71.16% solve
c 
c last line shows process time for solving
c (percentage relative to total process time)
c 
c --- [ statistics ] ---------------------------------------------------------
c 
c chronological:               434        43.27 %  of conflicts
c conflicts:                  1003       701.19    per second
c decisions:                 43159     30172.34    per second
c fixed:                    225895        23.22 %  of all variables
c learned:                     613        61.12 %  per conflict
c learned_lits:               5822       100.00 %  learned literals
c minimized:                     0         0.00 %  learned literals
c shrunken:                   1338        22.98 %  learned literals
c minishrunken:                188         3.23 %  learned literals
c otfs:                          4         0.40 %  of conflict
c propagations:           12134290         8.48 M  per second
c rephased:                      1      1003.00    interval
c restarts:                     35        28.66    interval
c stabilizing:                   1         0.30 %  of conflicts
c subsumed:                     41         0.00 %  of all clauses
c strengthened:                  4         0.00 %  of all clauses
c 
c seconds are measured in process time for solving
c 
c --- [ resources ] ----------------------------------------------------------
c 
c total process time since initialization:         2.01    seconds
c total real time since initialization:            2.04    seconds
c maximum resident set size of process:          400.60    MB
c 
c --- [ shutting down ] ------------------------------------------------------
c 
c exit 10
